
Gurobi 9.1.2 (win64) logging started Sun Dec  5 18:19:17 2021

Gurobi Optimizer version 9.1.2 build v9.1.2rc0 (win64)
Thread count: 8 physical cores, 8 logical processors, using up to 8 threads
Optimize a model with 1 rows, 74 columns and 73 nonzeros
Model fingerprint: 0x1da28f0d
Variable types: 1 continuous, 73 integer (73 binary)
Coefficient statistics:
  Matrix range     [1e+00, 1e+01]
  Objective range  [1e+00, 1e+00]
  Bounds range     [3e+01, 3e+01]
  RHS range        [1e+01, 1e+01]
Presolve time: 0.00s
Presolved: 1 rows, 74 columns, 73 nonzeros
Variable types: 1 continuous, 73 integer (73 binary)

Root simplex log...

Iteration    Objective       Primal Inf.    Dual Inf.      Time
       0   -3.3823475e+01   2.511837e-01   0.000000e+00     15s
       4   -3.3823475e+01   0.000000e+00   0.000000e+00     15s

Root relaxation: objective -3.382348e+01, 4 iterations, 0.00 seconds

    Nodes    |    Current Node    |     Objective Bounds      |     Work
 Expl Unexpl |  Obj  Depth IntInf | Incumbent    BestBd   Gap | It/Node Time

     0     0  -30.52401    0    2          -  -30.52401      -     -   14s
H    0     0                       0.8542991  -30.52401  3673%     -   15s
H    0     0                       0.7342154  -30.52401  4257%     -   17s
     0     0  -20.58596    0    5    0.73422  -20.58596  2904%     -   17s
H    0     0                       0.6816995  -20.58596  3120%     -   17s
     0     0  -17.72446    0    7    0.68170  -17.72446  2700%     -   17s
     0     0  -17.72446    0    6    0.68170  -17.72446  2700%     -   17s
     0     0  -16.50089    0    6    0.68170  -16.50089  2521%     -   17s
H    0     0                       0.6809612  -16.50089  2523%     -   18s
H    0     0                       0.6809612  -16.50089  2523%     -   18s
H    0     0                       0.6809612  -16.50089  2523%     -   18s
     0     0  -15.72697    0    7    0.68096  -15.72697  2410%     -   18s
     0     0  -14.19784    0    7    0.68096  -14.19784  2185%     -   18s
H    0     0                       0.6809612  -14.19784  2185%     -   18s
     0     0  -13.89555    0    6    0.68096  -13.89555  2141%     -   18s
     0     0  -13.39687    0    7    0.68096  -13.39687  2067%     -   18s
H    0     0                       0.6809612  -13.39687  2067%     -   19s
H    0     0                       0.6809612  -13.39687  2067%     -   19s
H    0     0                       0.6809612  -13.39687  2067%     -   19s
     0     0  -13.13369    0    9    0.68096  -13.13369  2029%     -   19s
     0     0  -13.12658    0   10    0.68096  -13.12658  2028%     -   19s
     0     0  -13.11698    0   10    0.68096  -13.11698  2026%     -   19s
     0     0  -12.22725    0    9    0.68096  -12.22725  1896%     -   19s
     0     0  -11.91397    0    7    0.68096  -11.91397  1850%     -   19s
     0     0  -11.90915    0    8    0.68096  -11.90915  1849%     -   19s
     0     0  -11.89333    0    9    0.68096  -11.89333  1847%     -   19s
     0     0  -11.87257    0    8    0.68096  -11.87257  1844%     -   19s
     0     0  -11.77717    0    8    0.68096  -11.77717  1829%     -   19s
     0     0  -11.73807    0   10    0.68096  -11.73807  1824%     -   19s
     0     0  -11.72930    0   10    0.68096  -11.72930  1822%     -   19s
     0     0  -11.72062    0   10    0.68096  -11.72062  1821%     -   19s
     0     0  -11.72035    0   10    0.68096  -11.72035  1821%     -   19s
     0     0  -11.67824    0    9    0.68096  -11.67824  1815%     -   19s
     0     0  -11.66711    0    9    0.68096  -11.66711  1813%     -   19s
     0     0  -11.66556    0    9    0.68096  -11.66556  1813%     -   19s
     0     0  -11.66453    0    9    0.68096  -11.66453  1813%     -   19s
     0     2  -11.66453    0    9    0.68096  -11.66453  1813%     -   19s

Cutting planes:
  MIR: 15
  Lazy constraints: 17

Explored 88 nodes (443 simplex iterations) in 20.37 seconds
Thread count was 8 (of 8 available processors)

Solution count 4: 0.680961 0.681699 0.734215 0.854299 

Optimal solution found (tolerance 1.00e-04)
Best objective 6.809611942086e-01, best bound 6.809611942086e-01, gap 0.0000%

User-callback calls 425, time in user-callback 23.90 sec
